peakDumbCharging = 14800; 
Machine = anon_enum(16); 
machineSpeed = [3700,3700,3700,3700,3700,3700,3700,3700,3700,3700,3700,3700,3700,3700,3700,3700]; 
machineLoad = [3700,3700,3700,3700,3700,3700,3700,3700,3700,3700,3700,3700,3700,3700,3700,3700]; 
Car = anon_enum(18); 
demandCar = [32040,4680,360,9840,8800,21960,5920,3160,480,1560,3800,17520,4560,5200,33360,1720,34800,12760]; 
arrivalCar = [75,73,72,67,67,67,61,56,51,49,48,48,47,44,36,34,33,31]; 
departureCar = [85,75,73,74,72,80,64,58,52,50,52,54,51,46,59,36,59,64]; 
